50
12067

218 766
385 500
38 569
28 253
580 980
112 611
260 878
908 298
637 666
266 986
359 14
849 321
232 90
678 894
114 940
302 429
159 881
404 303
302 621
135 14
969 221
848 394
450 781
816 209
189 563
274 364
549 44
49 960
230 884
398 266
726 620
396 413
257 738
736 485
392 276
551 458
932 575
537 927
888 917
443 225
63 704
842 665
172 535
720 264
667 568
818 372
341 445
805 936
5 857
95 893
